50
    1    46     4
    2    19    48
    3    20     4
    4    50    13
    5     6    28
    6    41    44
    7    20     1
    8    10     8
    9    45    19
   10    33    20
   11    45     8
   12    45    33
   13    13    46
   14    42    16
   15    21    11
   16     2     1
   17     8    31
   18    32    46
   19    37    47
   20     6     8
   21    20    37
   22     5    44
   23     2     6
   24    14    31
   25    43    15
   26    13    32
   27    38    20
   28    20    36
   29    32    10
   30    11    21
   31    43    48
   32    46    50
   33    22    40
   34    47    17
   35    18    44
   36    35     9
   37    41    48
   38    37     3
   39    39    10
   40     8     9
   41    20     1
   42    42     2
   43    18    30
   44    27    34
   45    23    31
   46    25    47
   47    13     8
   48     1    26
   49    43     9
   50    36    18
390
